
<<< setup


<<< generate

CPXPARAM_Simplex_Tolerances_Optimality           0.001
CPXPARAM_Simplex_Tolerances_Feasibility          0.001
CPXPARAM_TimeLimit                               3600
CPXPARAM_Threads                                 8
CPXPARAM_MIP_Tolerances_AbsMIPGap                0.001
CPXPARAM_MIP_Tolerances_MIPGap                   0.001
CPXPARAM_MIP_Tolerances_Integrality              0.001
CPXPARAM_MIP_Display                             4
CPXPARAM_MIP_PolishAfter_Solutions               1
Tried aggregator 1 time.
MIQCP Presolve eliminated 2 rows and 2 columns.
Reduced MIQCP has 69 rows, 195 columns, and 1225 nonzeros.
Reduced MIQCP has 0 binaries, 16 generals, 0 SOSs, and 0 indicators.
Reduced MIQCP has 34 quadratic constraints.
Presolve time = 0.00 sec. (0.44 ticks)
MIP emphasis: balance optimality and feasibility.
MIP search method: dynamic search.
Parallel mode: deterministic, using up to 8 threads.
Initializing dual steep norms . . .

Iteration log . . .
Iteration:     1   Scaled dual infeas =             0.000000
Iteration:     2   Dual objective     =           237.872279
Root relaxation solution time = 0.00 sec. (0.11 ticks)

        Nodes                                         Cuts/
   Node  Left     Objective  IInf  Best Integer    Best Bound    ItCnt     Gap

      0     0      237.8723     0                                    2         
      0     0      237.8723     1                     Cone: 2        3         
      0     0      237.8723     2                     Cone: 4        4         
      0     0      237.8723     2                     Cone: 6        5         
      0     0      237.8723     3                     Cone: 8        6         
      0     0      237.8723     4                    Cone: 10        7         
      0     0      237.8723     4                    Cone: 12        8         
      0     0      284.5576     4                    Cone: 77       76         
      0     0      284.5803    16                   Cone: 136       89         
      0     0      284.5916    16                   Cone: 195      100         
      0     0      284.5972    16                   Cone: 254      108         
      0     0      284.6000    16                   Cone: 313      115         
      0     0      284.6014    16                   Cone: 372      122         
      0     0      284.6019    16                   Cone: 431      127         
      0     0      284.6022    16                   Cone: 490      133         
      0     0      284.6024    16                   Cone: 549      139         
      0     0      284.6025    16                   Cone: 608      145         
      0     0      284.6026    16                   Cone: 667      152         
      0     0      284.6027    16                   Cone: 726      160         
      0     0      284.6028    16                   Cone: 785      168         
      0     0      284.6028    15                   Cone: 844      177         
      0     0      284.6029    16                   Cone: 903      186         
      0     0      284.6029    16                   Cone: 960      194         
      0     0      284.6029    16                    284.6029      207         
*     0+    0                          284.6255      284.6029             0.01%
Found incumbent of value 284.625541 after 0.06 sec. (23.09 ticks)

Root node processing (before b&c):
  Real time             =    0.06 sec. (23.10 ticks)
Parallel b&c, 8 threads:
  Real time             =    0.00 sec. (0.00 ticks)
  Sync time (average)   =    0.00 sec.
  Wait time (average)   =    0.00 sec.
                          ------------
Total (root+branch&cut) =    0.06 sec. (23.10 ticks)

<<< solve


OBJECTIVE: 284.6255
X*: [-0.64549 5.2634 -1.2547 3.8019 -1.5908 2.9952 -1.7764 2.5499 -1.8789 2.3041
     -1.9354 2.1684 -1.9666 2.0935 -1.9839 2.0521] Z*: [-2 2 -2 2 -2 2 -2 2 -2 2 -2 2 -2 2 -2 2]
f*:284.62554102

<<< post process


<<< done

